DIMACS_lns/graph-1000-835.col
p edge 1000 1810
e 1 373
e 1 831
e 1 124
e 1 430
e 1 988
e 1 200
e 1 905
e 1 967
e 1 456
e 1 778
e 2 996
e 2 651
e 2 593
e 2 96
e 2 160
e 2 334
e 6 782
e 6 964
e 6 845
e 7 836
e 7 866
e 7 445
e 8 91
e 8 972
e 8 111
e 9 754
e 9 61
e 9 950
e 9 901
e 9 57
e 9 294
e 12 40
e 12 189
e 12 202
e 13 320
e 13 791
e 13 481
e 13 169
e 15 916
e 15 643
e 15 852
e 16 20
e 16 806
e 16 645
e 16 830
e 17 374
e 17 173
e 17 256
e 17 587
e 17 89
e 17 362
e 17 105
e 17 480
e 18 152
e 18 499
e 18 121
e 19 929
e 19 773
e 19 486
e 20 994
e 20 117
e 22 299
e 22 788
e 22 317
e 23 214
e 23 845
e 23 974
e 23 35
e 23 791
e 24 141
e 24 847
e 24 109
e 24 118
e 24 648
e 24 780
e 24 919
e 24 809
e 25 386
e 25 767
e 25 495
e 25 147
e 26 545
e 26 403
e 26 845
e 26 796
e 27 409
e 27 194
e 27 325
e 27 157
e 27 927
e 27 363
e 28 164
e 28 399
e 28 857
e 28 993
e 28 362
e 28 821
e 28 76
e 29 752
e 29 501
e 29 86
e 32 177
e 32 421
e 32 418
e 32 846
e 32 860
e 32 675
e 34 357
e 34 918
e 34 866
e 34 636
e 35 480
e 35 189
e 37 306
e 37 780
e 37 161
e 37 663
e 37 768
e 38 993
e 38 153
e 38 232
e 38 622
e 39 560
e 39 96
e 39 833
e 39 127
e 39 180
e 39 821
e 40 169
e 40 585
e 40 940
e 41 709
e 41 140
e 41 730
e 41 649
e 41 474
e 42 108
e 42 562
e 42 88
e 42 209
e 42 509
e 42 685
e 42 623
e 44 518
e 44 730
e 44 172
e 44 111
e 44 906
e 44 442
e 45 208
e 45 468
e 45 683
e 45 378
e 45 548
e 45 129
e 45 362
e 46 430
e 46 846
e 46 264
e 46 938
e 46 51
e 46 145
e 47 296
e 47 498
e 47 866
e 49 79
e 49 864
e 49 204
e 49 298
e 49 425
e 49 929
e 49 150
e 49 839
e 50 481
e 50 240
e 50 567
e 50 622
e 51 488
e 51 880
e 54 358
e 54 500
e 54 159
e 55 606
e 55 607
e 55 997
e 57 287
e 57 866
e 57 193
e 57 779
e 57 884
e 57 330
e 58 437
e 58 450
e 58 761
e 58 974
e 59 549
e 59 620
e 59 274
e 60 494
e 60 940
e 60 490
e 60 293
e 60 405
e 60 160
e 60 696
e 61 237
e 61 977
e 62 239
e 62 389
e 62 932
e 64 738
e 64 277
e 64 86
e 67 878
e 67 678
e 67 786
e 67 170
e 68 882
e 68 648
e 68 165
e 68 967
e 68 651
e 68 858
e 68 386
e 68 625
e 71 364
e 71 316
e 71 213
e 71 684
e 72 183
e 72 375
e 72 654
e 73 124
e 73 791
e 73 373
e 73 345
e 73 221
e 76 540
e 76 222
e 77 489
e 77 374
e 77 576
e 77 282
e 79 260
e 79 91
e 80 581
e 80 910
e 80 574
e 81 714
e 81 922
e 81 192
e 81 877
e 81 607
e 81 995
e 81 750
e 82 778
e 82 150
e 82 614
e 83 242
e 83 137
e 83 484
e 83 675
e 83 515
e 83 238
e 84 293
e 84 225
e 84 240
e 84 592
e 84 549
e 84 118
e 84 544
e 86 642
e 86 596
e 87 272
e 87 807
e 87 134
e 87 734
e 87 337
e 87 127
e 87 454
e 87 434
e 88 417
e 88 199
e 88 769
e 88 646
e 88 484
e 89 755
e 89 456
e 89 426
e 90 732
e 90 311
e 90 322
e 90 154
e 90 966
e 90 829
e 91 838
e 91 400
e 96 369
e 96 812
e 98 807
e 98 220
e 98 258
e 101 965
e 101 796
e 101 734
e 102 557
e 102 939
e 102 324
e 102 363
e 102 910
e 102 825
e 105 167
e 105 475
e 105 687
e 105 427
e 105 696
e 108 392
e 108 168
e 108 653
e 108 522
e 109 426
e 109 334
e 109 514
e 109 988
e 109 972
e 111 182
e 111 319
e 111 300
e 111 828
e 111 606
e 117 403
e 117 198
e 117 631
e 117 656
e 117 304
e 118 703
e 118 528
e 119 121
e 119 209
e 119 280
e 119 339
e 119 684
e 120 780
e 120 679
e 120 997
e 120 253
e 121 749
e 122 314
e 122 481
e 122 412
e 123 392
e 123 519
e 123 136
e 123 749
e 124 418
e 124 299
e 125 610
e 125 320
e 125 731
e 126 525
e 126 138
e 126 407
e 126 486
e 126 474
e 127 152
e 127 453
e 127 257
e 127 454
e 127 981
e 129 776
e 129 798
e 130 510
e 130 621
e 130 950
e 130 338
e 130 151
e 131 318
e 131 233
e 131 830
e 132 993
e 132 635
e 132 991
e 132 917
e 133 649
e 133 822
e 133 980
e 134 280
e 134 632
e 134 922
e 134 788
e 134 906
e 135 802
e 135 179
e 135 619
e 136 695
e 136 144
e 137 141
e 137 849
e 137 846
e 138 613
e 138 375
e 138 857
e 138 547
e 139 392
e 139 807
e 139 381
e 139 148
e 140 772
e 140 643
e 140 366
e 140 732
e 141 260
e 142 587
e 142 884
e 142 490
e 142 758
e 142 741
e 144 773
e 144 821
e 144 769
e 144 145
e 145 331
e 145 859
e 145 917
e 145 231
e 145 849
e 145 556
e 146 699
e 146 427
e 146 436
e 147 844
e 147 197
e 147 539
e 147 813
e 147 771
e 147 595
e 147 901
e 147 542
e 148 772
e 148 506
e 148 427
e 149 381
e 149 484
e 149 931
e 149 739
e 150 257
e 150 681
e 151 195
e 151 294
e 151 973
e 152 902
e 152 374
e 152 977
e 152 316
e 153 572
e 153 835
e 153 739
e 153 637
e 153 523
e 153 967
e 153 301
e 154 467
e 154 715
e 155 190
e 155 791
e 155 944
e 155 531
e 156 240
e 156 401
e 156 846
e 156 872
e 156 159
e 157 493
e 157 360
e 159 881
e 159 541
e 160 779
e 160 680
e 160 326
e 161 483
e 161 493
e 162 877
e 162 510
e 162 277
e 163 247
e 163 576
e 163 631
e 163 199
e 163 532
e 163 333
e 164 622
e 164 343
e 165 210
e 165 985
e 165 238
e 165 187
e 165 496
e 166 590
e 166 170
e 166 945
e 167 347
e 167 933
e 167 436
e 167 171
e 167 711
e 167 929
e 168 247
e 168 428
e 168 607
e 168 432
e 169 212
e 169 581
e 169 325
e 169 174
e 170 546
e 170 324
e 171 757
e 171 653
e 171 456
e 171 272
e 171 510
e 171 999
e 171 341
e 171 688
e 172 299
e 172 847
e 172 280
e 172 174
e 173 596
e 173 720
e 173 638
e 173 881
e 173 185
e 173 282
e 173 971
e 173 771
e 173 918
e 173 660
e 174 806
e 174 800
e 175 924
e 175 363
e 175 974
e 176 944
e 176 877
e 176 281
e 176 612
e 176 527
e 176 489
e 177 755
e 177 546
e 177 568
e 177 395
e 177 743
e 179 290
e 179 723
e 179 905
e 179 869
e 180 869
e 180 890
e 180 489
e 181 558
e 181 577
e 181 547
e 181 499
e 182 932
e 182 586
e 183 526
e 183 362
e 185 590
e 185 828
e 186 629
e 186 713
e 186 805
e 187 275
e 187 849
e 188 750
e 188 573
e 188 554
e 189 568
e 189 323
e 190 761
e 190 682
e 190 579
e 190 982
e 190 695
e 190 232
e 190 346
e 192 546
e 192 553
e 193 711
e 193 967
e 193 222
e 193 785
e 194 747
e 194 269
e 194 889
e 195 938
e 195 988
e 195 665
e 196 759
e 196 761
e 196 852
e 197 927
e 197 725
e 198 200
e 198 407
e 198 283
e 198 817
e 198 927
e 198 622
e 199 324
e 199 810
e 200 778
e 200 352
e 200 675
e 201 247
e 201 794
e 201 712
e 202 514
e 202 401
e 202 466
e 202 480
e 202 554
e 204 690
e 204 726
e 204 342
e 204 349
e 204 850
e 205 607
e 205 492
e 205 342
e 208 519
e 208 333
e 208 415
e 208 702
e 208 973
e 208 705
e 208 531
e 209 776
e 209 492
e 209 993
e 209 463
e 210 910
e 210 317
e 210 824
e 210 486
e 211 265
e 211 752
e 211 411
e 211 849
e 211 780
e 211 231
e 211 700
e 212 943
e 212 238
e 213 819
e 213 423
e 214 889
e 214 871
e 214 977
e 214 686
e 215 401
e 215 598
e 215 970
e 215 308
e 218 666
e 218 809
e 218 419
e 218 849
e 218 261
e 219 836
e 219 723
e 219 433
e 220 282
e 220 938
e 220 292
e 221 410
e 221 237
e 221 653
e 221 308
e 221 643
e 222 445
e 222 857
e 222 693
e 222 706
e 225 703
e 225 499
e 225 968
e 225 394
e 225 610
e 225 821
e 226 321
e 226 892
e 226 310
e 226 324
e 227 556
e 227 891
e 227 646
e 227 577
e 227 442
e 227 975
e 228 650
e 228 636
e 228 402
e 228 746
e 229 796
e 229 665
e 229 683
e 231 391
e 231 955
e 231 255
e 231 424
e 231 858
e 232 899
e 232 697
e 232 812
e 233 673
e 233 972
e 235 767
e 235 882
e 235 761
e 236 881
e 236 416
e 236 810
e 237 645
e 237 333
e 237 496
e 237 821
e 237 245
e 237 905
e 238 290
e 238 681
e 238 780
e 238 945
e 239 577
e 239 943
e 239 360
e 240 637
e 240 488
e 241 545
e 241 844
e 241 510
e 242 808
e 242 432
e 243 516
e 243 534
e 243 390
e 245 982
e 245 386
e 246 621
e 246 533
e 246 982
e 246 521
e 247 569
e 248 521
e 248 415
e 248 258
e 248 398
e 252 649
e 252 905
e 252 515
e 252 367
e 252 371
e 253 269
e 253 765
e 253 400
e 255 912
e 255 997
e 255 883
e 256 606
e 256 636
e 257 943
e 257 492
e 257 448
e 258 440
e 258 864
e 258 371
e 260 996
e 260 419
e 260 395
e 261 549
e 261 461
e 261 581
e 263 352
e 263 777
e 263 688
e 264 371
e 264 356
e 264 971
e 264 430
e 264 782
e 265 980
e 265 691
e 265 677
e 265 532
e 266 780
e 266 663
e 266 766
e 268 316
e 268 804
e 268 357
e 268 705
e 269 277
e 269 711
e 269 428
e 270 390
e 270 325
e 270 635
e 270 286
e 270 494
e 272 292
e 272 991
e 272 580
e 272 740
e 274 613
e 274 685
e 275 495
e 275 699
e 275 383
e 275 609
e 277 696
e 277 576
e 277 802
e 277 825
e 277 283
e 277 600
e 280 872
e 281 757
e 281 763
e 281 402
e 283 709
e 283 664
e 285 965
e 285 819
e 285 949
e 286 893
e 286 377
e 286 848
e 287 619
e 287 382
e 289 823
e 289 322
e 289 293
e 289 527
e 289 558
e 290 823
e 290 515
e 292 364
e 292 541
e 292 396
e 292 593
e 292 506
e 293 706
e 293 702
e 294 447
e 294 417
e 294 438
e 294 700
e 294 867
e 294 546
e 294 592
e 296 897
e 296 574
e 296 693
e 296 392
e 296 450
e 298 919
e 298 995
e 298 316
e 299 890
e 299 756
e 299 974
e 300 869
e 300 398
e 300 572
e 301 595
e 301 539
e 301 795
e 301 315
e 302 495
e 302 673
e 302 445
e 302 743
e 304 548
e 304 362
e 306 631
e 306 492
e 308 823
e 308 517
e 308 526
e 310 372
e 310 703
e 310 602
e 311 516
e 311 557
e 311 982
e 311 595
e 311 661
e 313 510
e 313 508
e 313 314
e 314 811
e 314 971
e 314 330
e 315 679
e 315 467
e 315 805
e 315 681
e 316 558
e 316 447
e 316 788
e 316 824
e 317 594
e 318 495
e 318 928
e 319 506
e 319 534
e 319 354
e 320 772
e 320 428
e 320 876
e 320 686
e 320 666
e 320 747
e 320 811
e 321 757
e 321 572
e 321 526
e 321 472
e 321 812
e 321 621
e 321 922
e 322 491
e 322 916
e 322 975
e 323 574
e 323 412
e 323 643
e 323 805
e 323 446
e 323 484
e 323 593
e 324 928
e 324 355
e 325 941
e 325 706
e 326 853
e 326 585
e 328 466
e 328 601
e 328 678
e 330 702
e 330 345
e 330 499
e 330 502
e 330 469
e 331 848
e 331 756
e 331 368
e 333 829
e 333 395
e 334 352
e 335 889
e 335 442
e 335 568
e 335 432
e 335 592
e 335 360
e 337 757
e 337 407
e 337 989
e 337 625
e 338 999
e 338 867
e 338 541
e 338 699
e 339 386
e 339 421
e 339 695
e 339 482
e 341 638
e 341 500
e 342 438
e 342 999
e 342 886
e 342 572
e 343 622
e 343 856
e 343 846
e 343 939
e 345 463
e 345 968
e 346 411
e 346 976
e 346 800
e 346 763
e 347 820
e 347 584
e 349 663
e 349 962
e 349 592
e 352 683
e 352 796
e 352 359
e 354 941
e 354 424
e 354 448
e 354 638
e 354 970
e 355 533
e 355 887
e 355 633
e 355 379
e 356 778
e 356 798
e 356 713
e 357 969
e 357 920
e 357 442
e 358 658
e 358 983
e 358 768
e 358 900
e 358 477
e 359 887
e 359 982
e 359 399
e 360 626
e 360 385
e 361 792
e 361 763
e 361 785
e 361 882
e 362 773
e 362 597
e 364 820
e 364 621
e 366 682
e 366 404
e 366 844
e 366 839
e 367 661
e 367 501
e 367 609
e 367 399
e 367 803
e 367 422
e 368 777
e 368 974
e 369 936
e 369 452
e 369 876
e 370 859
e 370 682
e 370 650
e 371 996
e 372 466
e 372 468
e 372 374
e 373 695
e 373 711
e 373 665
e 374 871
e 374 396
e 374 950
e 375 594
e 375 702
e 377 574
e 377 986
e 377 824
e 377 590
e 377 808
e 378 416
e 378 772
e 378 899
e 379 777
e 379 679
e 379 613
e 380 610
e 380 454
e 380 705
e 380 569
e 380 398
e 381 881
e 381 466
e 381 943
e 382 666
e 382 456
e 382 425
e 382 870
e 383 786
e 383 810
e 383 651
e 385 899
e 385 924
e 385 600
e 385 806
e 386 942
e 386 603
e 387 750
e 387 620
e 387 955
e 388 732
e 388 481
e 388 432
e 389 949
e 389 741
e 389 656
e 390 866
e 390 648
e 390 907
e 391 524
e 391 866
e 392 416
e 392 520
e 392 405
e 394 600
e 394 828
e 395 442
e 395 533
e 396 455
e 396 594
e 396 598
e 396 819
e 398 646
e 398 921
e 398 539
e 398 994
e 398 744
e 398 546
e 399 488
e 399 869
e 399 592
e 400 495
e 401 765
e 402 581
e 402 886
e 402 693
e 402 883
e 402 790
e 402 919
e 403 537
e 403 447
e 404 830
e 404 891
e 404 768
e 404 658
e 404 525
e 404 482
e 405 828
e 405 736
e 407 691
e 407 769
e 407 567
e 409 921
e 409 446
e 409 487
e 409 850
e 409 482
e 410 791
e 410 912
e 411 847
e 412 547
e 412 996
e 414 537
e 414 868
e 414 607
e 415 940
e 416 807
e 416 448
e 416 798
e 416 560
e 417 633
e 417 913
e 418 706
e 418 966
e 419 456
e 419 520
e 419 697
e 421 975
e 421 810
e 422 580
e 422 797
e 422 927
e 422 563
e 423 697
e 423 540
e 423 615
e 423 660
e 423 844
e 423 515
e 423 865
e 423 932
e 424 985
e 424 728
e 424 586
e 424 945
e 425 986
e 425 502
e 425 824
e 426 500
e 427 910
e 427 724
e 427 633
e 428 588
e 428 905
e 428 501
e 430 727
e 430 907
e 430 720
e 432 690
e 432 522
e 432 445
e 432 544
e 433 968
e 433 538
e 433 860
e 434 722
e 434 684
e 434 674
e 434 612
e 436 794
e 436 462
e 436 549
e 437 870
e 437 969
e 438 759
e 438 990
e 440 889
e 440 716
e 442 645
e 442 681
e 442 809
e 442 972
e 445 913
e 445 457
e 446 606
e 446 681
e 447 832
e 447 690
e 447 474
e 447 972
e 450 792
e 450 594
e 450 509
e 451 758
e 451 794
e 451 724
e 452 848
e 452 716
e 452 912
e 452 475
e 453 575
e 453 687
e 454 520
e 454 592
e 454 817
e 455 953
e 455 886
e 455 601
e 455 844
e 456 498
e 457 716
e 457 891
e 457 846
e 457 651
e 460 832
e 460 825
e 460 635
e 460 752
e 460 518
e 460 530
e 460 741
e 461 713
e 461 637
e 461 858
e 461 791
e 462 508
e 462 983
e 462 474
e 462 805
e 462 882
e 463 486
e 466 703
e 467 880
e 467 654
e 468 831
e 469 549
e 469 776
e 470 557
e 470 898
e 470 490
e 472 898
e 472 858
e 474 738
e 474 535
e 475 761
e 475 598
e 476 562
e 476 936
e 476 522
e 476 838
e 476 538
e 477 648
e 477 580
e 477 892
e 479 967
e 479 977
e 479 585
e 480 724
e 481 665
e 481 964
e 483 847
e 483 527
e 486 983
e 486 789
e 486 898
e 486 902
e 486 622
e 486 718
e 487 778
e 487 900
e 488 677
e 488 680
e 488 624
e 489 667
e 489 596
e 490 720
e 491 726
e 491 635
e 491 542
e 492 766
e 492 609
e 493 562
e 493 567
e 493 555
e 493 836
e 493 705
e 494 850
e 494 635
e 494 666
e 495 652
e 495 646
e 496 727
e 496 962
e 498 902
e 499 967
e 499 741
e 499 900
e 500 858
e 500 615
e 500 899
e 501 995
e 501 989
e 502 530
e 502 797
e 502 950
e 502 722
e 502 759
e 508 529
e 508 896
e 509 579
e 510 948
e 510 765
e 510 571
e 511 812
e 511 576
e 511 861
e 511 727
e 514 749
e 515 770
e 515 807
e 516 586
e 516 794
e 517 714
e 517 538
e 517 558
e 518 765
e 519 621
e 519 948
e 520 605
e 521 953
e 522 817
e 523 789
e 523 950
e 524 865
e 524 675
e 525 639
e 525 883
e 525 822
e 525 760
e 527 691
e 528 651
e 528 549
e 529 586
e 529 555
e 529 650
e 530 917
e 530 901
e 531 883
e 531 859
e 532 927
e 532 565
e 532 860
e 533 718
e 533 838
e 534 888
e 534 779
e 535 558
e 535 836
e 535 609
e 537 585
e 537 703
e 538 828
e 538 809
e 539 876
e 539 702
e 539 746
e 540 567
e 540 631
e 542 653
e 544 642
e 544 884
e 544 985
e 545 770
e 547 938
e 548 703
e 549 741
e 553 892
e 553 871
e 554 966
e 555 562
e 556 714
e 556 856
e 556 620
e 556 596
e 556 920
e 557 658
e 557 624
e 560 984
e 562 997
e 562 714
e 562 919
e 563 976
e 563 835
e 563 714
e 563 822
e 563 833
e 565 851
e 565 968
e 565 932
e 567 766
e 567 986
e 567 690
e 567 970
e 568 590
e 568 715
e 568 884
e 569 730
e 569 785
e 569 931
e 571 877
e 571 770
e 571 756
e 573 898
e 573 590
e 575 802
e 575 603
e 575 808
e 576 892
e 576 876
e 577 858
e 577 874
e 577 790
e 579 942
e 579 950
e 579 760
e 580 947
e 580 683
e 581 681
e 583 881
e 583 983
e 583 767
e 584 728
e 584 864
e 585 709
e 586 919
e 586 940
e 586 752
e 587 715
e 588 619
e 588 594
e 588 715
e 588 612
e 592 685
e 593 856
e 593 858
e 593 673
e 593 941
e 594 864
e 594 788
e 595 620
e 595 955
e 595 797
e 596 884
e 596 778
e 596 758
e 597 699
e 597 993
e 598 763
e 600 717
e 601 623
e 601 988
e 601 746
e 601 710
e 602 858
e 602 864
e 602 739
e 603 648
e 603 875
e 605 939
e 605 889
e 605 789
e 607 942
e 607 643
e 610 854
e 610 866
e 612 667
e 613 701
e 613 674
e 613 646
e 613 709
e 614 777
e 614 915
e 615 636
e 619 797
e 619 831
e 620 813
e 621 622
e 621 844
e 623 976
e 624 896
e 624 650
e 624 938
e 625 710
e 625 991
e 626 725
e 626 918
e 626 850
e 629 836
e 629 748
e 631 859
e 632 876
e 632 888
e 633 915
e 635 690
e 636 994
e 637 688
e 638 730
e 639 726
e 639 861
e 642 674
e 645 797
e 648 739
e 648 873
e 648 983
e 649 748
e 650 695
e 650 727
e 650 891
e 651 929
e 652 890
e 652 654
e 652 789
e 653 874
e 653 828
e 653 734
e 653 854
e 654 860
e 654 817
e 654 743
e 654 794
e 656 728
e 656 982
e 658 722
e 658 736
e 658 918
e 660 938
e 660 870
e 660 965
e 660 906
e 661 857
e 661 836
e 661 703
e 664 701
e 664 760
e 664 829
e 665 748
e 666 981
e 666 845
e 667 991
e 670 874
e 670 997
e 670 695
e 674 878
e 674 796
e 674 932
e 675 868
e 677 792
e 677 716
e 678 832
e 678 980
e 679 724
e 679 791
e 679 973
e 680 695
e 682 928
e 682 821
e 683 761
e 684 891
e 684 716
e 685 881
e 686 913
e 687 923
e 687 989
e 687 718
e 687 922
e 688 933
e 691 817
e 691 984
e 693 769
e 693 832
e 696 727
e 697 921
e 699 861
e 700 782
e 701 924
e 702 839
e 702 717
e 703 989
e 703 897
e 703 971
e 705 740
e 705 731
e 709 773
e 709 947
e 709 980
e 710 860
e 710 977
e 712 947
e 712 743
e 713 980
e 716 878
e 717 844
e 718 824
e 718 953
e 720 918
e 720 788
e 723 938
e 723 809
e 725 923
e 725 999
e 726 841
e 727 758
e 727 823
e 728 844
e 731 899
e 731 889
e 732 825
e 732 865
e 732 984
e 732 853
e 736 768
e 736 811
e 738 984
e 739 927
e 740 858
e 740 967
e 741 901
e 744 748
e 744 846
e 746 786
e 747 990
e 748 803
e 750 917
e 750 943
e 754 897
e 754 833
e 755 856
e 757 917
e 757 856
e 757 851
e 758 913
e 759 975
e 761 949
e 761 980
e 763 779
e 763 909
e 763 948
e 765 976
e 765 833
e 765 887
e 765 881
e 766 883
e 767 790
e 767 812
e 770 776
e 771 792
e 771 772
e 771 869
e 772 778
e 772 897
e 772 994
e 778 986
e 779 999
e 783 997
e 783 813
e 783 869
e 785 854
e 786 828
e 791 872
e 792 966
e 792 941
e 792 878
e 794 888
e 795 950
e 795 929
e 797 997
e 797 804
e 798 838
e 800 841
e 802 825
e 802 846
e 803 901
e 803 873
e 804 836
e 805 929
e 807 870
e 807 866
e 807 893
e 809 945
e 810 973
e 811 927
e 813 868
e 813 977
e 813 975
e 820 878
e 821 898
e 823 889
e 824 835
e 825 890
e 829 950
e 829 851
e 830 982
e 832 892
e 832 875
e 833 917
e 836 845
e 836 933
e 841 986
e 844 848
e 845 853
e 846 933
e 847 932
e 850 976
e 852 860
e 853 933
e 854 867
e 854 982
e 856 893
e 858 942
e 860 918
e 861 962
e 865 988
e 865 923
e 869 968
e 870 966
e 873 931
e 874 916
e 875 896
e 875 901
e 880 909
e 880 938
e 881 981
e 882 969
e 890 975
e 891 990
e 892 900
e 893 964
e 897 985
e 902 968
e 907 921
e 909 953
e 913 970
e 913 985
e 915 916
e 918 972
e 918 968
e 920 971
e 921 994
e 922 990
e 924 984
e 931 945
e 931 989
e 936 969
e 942 972
e 944 997
e 950 969
e 996 999
